5653.15
0 14 2 5 9 3 10 7 4 8 11 12 13 1 6 18 0
0 16 17 15 21 22 19 20 26 23 24 37 34 27 0
0 42 38 43 39 31 28 30 32 29 25 51 0
0 40 47 41 35 33 36 58 57 63 0
0 46 45 48 49 50 44 67 73 54 56 53 52 61 0
0 77 76 80 70 68 71 69 66 64 60 55 59 0
0 65 74 94 75 91 81 78 102 98 99 62 0
0 85 83 82 79 84 104 103 72 0
0 95 93 88 86 87 90 92 89 108 109 0
0 115 124 122 101 100 97 110 96 0
0 125 119 113 114 116 105 111 107 0
0 120 123 121 117 126 118 134 131 130 132 129 0
0 140 144 128 127 135 133 136 0
0 147 142 149 145 137 139 138 141 143 146 150 0
0 112 106 148 0
